30731
42 47 4 69 61 34 77 67 76 29 74 38 66 33 53 70 93 63 9 23 83 48 39 46 68 58 75 37 7 64 31 56 32 26 21 50 72 97 73 65 54 80 13 16 44 59 11 28 17 82 78 6 98 36 89 79 71 24 3 49 88 1 94 30 35 27 86 18 81 99 52 91 14 22 55 92 87 43 62 15 10 51 5 25 96 0 90 40 41 19 84 95 57 20 60 12 2 8 45 85 
